NAME          Power-LP MAXIMIZE
ROWS
 N  ZF
 L  R1
 L  R2
COLUMNS
    X1        ZF        1
    X1        R1        3
    X1        R2        1
    X2        ZF        2
    X2        R1        2
    X2        R2        3
RHS
    MYRHS     R1        12
    MYRHS     R2        9
ENDATA
